outputs/case_34.model.txt
internal_operation_executed = True
internal_handling_established = True
internal_control_system_established = True
internal_handling_system_established = True
internal_operation_system_established = True
internal_control_executed = True
penalty = False
internal_systems_compliant = True
internal_handling_system_executed = True
internal_operation_established = True
internal_handling_executed = True
internal_control_established = True
internal_operation_system_executed = True
internal_control_system_executed = True